# Solution for model RMP_EVSP
# Objective value = 7.7500249342390015e+11
q_0 1
q_1 1
q_2 0
q_3 1
q_4 1
q_5 1
q_6 1
q_7 0
q_8 0
q_9 1
q_10 1
q_11 0
q_12 1
q_13 1
q_14 1
q_15 1
q_16 0
q_17 0
q_18 0
q_19 1
q_20 1
q_21 1
q_22 0
q_23 1
q_24 0
q_25 1
q_26 1
q_27 0
q_28 1
q_29 0
q_30 0
q_31 0
q_32 1
q_33 1
q_34 1
q_35 1
q_36 1
q_37 0
q_38 1
q_39 1
q_40 1
q_41 1
q_42 1
q_43 1
q_44 0
q_45 1
q_46 0
q_47 1
q_48 1
q_49 1
q_50 1
q_51 1
q_52 1
q_53 1
q_54 1
q_55 1
q_56 1
q_57 1
q_58 0
q_59 1
q_60 1
q_61 0
q_62 0
q_63 1
q_64 1
q_65 0
q_66 0
q_67 0
q_68 1
q_69 0
q_70 0
q_71 0
q_72 0
q_73 0
q_74 0
q_75 0
q_76 0
q_77 0
q_78 0
q_79 0
q_80 0
q_81 0
q_82 0
q_83 0
q_84 1
q_85 1
q_86 1
q_87 1
q_88 0
q_89 0
q_90 1
q_91 1
q_92 0
q_93 1
q_94 1
q_95 1
q_96 1
q_97 0
q_98 0
q_99 1
q_100 0
q_101 1
q_102 1
q_103 1
q_104 1
q_105 0
q_106 0
q_107 0
q_108 1
q_109 0
q_110 0
q_111 0
q_112 0
q_113 0
q_114 1
q_115 0
q_116 1
q_117 1
q_118 1
q_119 1
q_120 1
q_121 0
q_122 1
q_123 0
q_124 0
q_125 0
q_126 1
q_127 1
q_128 1
q_129 1
q_130 1
q_131 1
q_132 0
q_133 1
q_134 0
q_135 1
q_136 0
q_137 1
q_138 1
q_139 0
q_140 1
q_141 1
q_142 1
q_143 1
q_144 1
q_145 0
q_146 1
q_147 1
q_148 1
q_149 1
q_150 0
q_151 1
q_152 1
q_153 0
q_154 1
q_155 1
q_156 1
q_157 0
q_158 1
q_159 1
q_160 1
q_161 0
q_162 1
q_163 0
q_164 1
q_165 1
q_166 1
q_167 0
q_168 1
q_169 1
q_170 1
q_171 0
q_172 1
q_173 0
q_174 1
q_175 1
q_176 0
q_177 1
q_178 0
q_179 1
q_180 1
q_181 1
q_182 0
q_183 0
q_184 0
q_185 1
q_186 1
q_187 1
q_188 1
q_189 0
q_190 1
q_191 0
q_192 0
q_193 0
q_194 1
q_195 0
q_196 1
q_197 1
q_198 0
q_199 0
q_200 1
q_201 1
q_202 1
q_203 1
q_204 0
q_205 0
q_206 1
q_207 0
q_208 0
q_209 1
q_210 1
q_211 0
q_212 1
q_213 1
q_214 1
q_215 1
q_216 1
q_217 1
q_218 1
q_219 1
q_220 1
q_221 1
q_222 1
q_223 1
q_224 1
q_225 0
q_226 1
q_227 1
q_228 0
q_229 0
q_230 1
q_231 1
q_232 0
q_233 1
q_234 1
q_235 0
q_236 1
q_237 0
q_238 0
q_239 1
q_240 1
q_241 1
q_242 1
q_243 1
q_244 1
q_245 1
q_246 1
q_247 1
q_248 1
q_249 1
q_250 1
q_251 1
q_252 0
q_253 1
q_254 1
q_255 1
q_256 1
q_257 1
q_258 0
q_259 1
q_260 1
q_261 1
q_262 1
q_263 1
q_264 1
q_265 1
q_266 1
q_267 1
q_268 0
q_269 0
q_270 1
q_271 1
q_272 1
q_273 1
q_274 1
q_275 0
q_276 1
q_277 1
q_278 1
q_279 0
q_280 0
q_281 1
q_282 1
q_283 1
q_284 1
q_285 0
q_286 1
q_287 1
q_288 1
q_289 1
q_290 1
q_291 1
q_292 1
q_293 1
q_294 0
q_295 1
q_296 1
q_297 1
q_298 1
q_299 1
q_300 1
q_301 1
q_302 1
q_303 1
q_304 1
q_305 1
q_306 1
q_307 1
q_308 1
q_309 1
q_310 1
q_311 1
q_312 1
q_313 1
q_314 1
q_315 1
q_316 1
q_317 1
q_318 1
q_319 1
q_320 1
q_321 1
q_322 1
q_323 1
q_324 1
q_325 1
q_326 1
q_327 1
q_328 0
q_329 1
q_330 1
q_331 1
q_332 1
q_333 1
q_334 1
q_335 1
q_336 1
q_337 1
q_338 1
q_339 1
q_340 1
q_341 1
q_342 1
q_343 1
q_344 1
q_345 1
q_346 1
q_347 1
q_348 1
q_349 1
q_350 1
q_351 1
q_352 0
q_353 1
q_354 1
q_355 1
q_356 1
q_357 1
q_358 1
q_359 1
q_360 1
q_361 1
q_362 1
q_363 1
q_364 1
q_365 1
q_366 1
q_367 1
q_368 1
q_369 1
q_370 1
q_371 1
q_372 1
q_373 1
q_374 1
q_375 1
q_376 1
q_377 1
q_378 1
q_379 1
q_380 0
q_381 1
q_382 0
q_383 1
q_384 1
q_385 1
q_386 1
q_387 1
q_388 1
q_389 1
q_390 1
q_391 1
q_392 1
q_393 1
q_394 1
q_395 1
q_396 0
q_397 1
q_398 1
q_399 1
q_400 1
q_401 1
q_402 1
q_403 1
q_404 1
q_405 1
q_406 1
q_407 1
q_408 1
q_409 1
q_410 0
q_411 1
q_412 1
q_413 1
q_414 1
q_415 1
q_416 0
q_417 1
q_418 1
q_419 0
q_420 1
q_421 1
q_422 1
q_423 1
q_424 0
q_425 1
q_426 1
q_427 1
q_428 1
q_429 1
q_430 1
q_431 1
q_432 1
q_433 0
q_434 1
q_435 1
q_436 1
q_437 1
q_438 1
q_439 1
q_440 1
q_441 1
q_442 1
q_443 1
q_444 0
q_445 1
q_446 1
q_447 1
q_448 1
q_449 1
q_450 1
q_451 1
q_452 1
q_453 1
q_454 1
q_455 1
q_456 1
q_457 1
q_458 1
q_459 1
q_460 1
q_461 1
q_462 0
q_463 1
q_464 0
q_465 1
q_466 1
q_467 1
q_468 0
q_469 0
q_470 1
q_471 0
q_472 0
q_473 0
q_474 0
q_475 0
q_476 0
q_477 0
q_478 0
q_479 0
q_480 1
q_481 1
q_482 1
q_483 1
q_484 1
q_485 1
q_486 1
q_487 0
q_488 1
q_489 1
q_490 1
q_491 1
q_492 1
q_493 1
q_494 1
q_495 1
q_496 1
q_497 1
q_498 1
q_499 1
q_500 1
q_501 1
q_502 1
q_503 1
q_504 1
q_505 1
q_506 1
q_507 1
q_508 1
q_509 1
q_510 1
q_511 1
q_512 0
q_513 1
q_514 1
q_515 1
q_516 1
q_517 1
q_518 1
q_519 1
q_520 1
q_521 1
q_522 1
q_523 1
q_524 1
q_525 1
q_526 1
q_527 1
q_528 1
q_529 1
q_530 1
q_531 1
q_532 1
q_533 1
q_534 1
q_535 1
q_536 1
q_537 1
q_538 1
q_539 1
q_540 1
q_541 0
q_542 1
q_543 1
q_544 1
q_545 0
q_546 1
q_547 1
q_548 1
q_549 1
q_550 1
q_551 1
q_552 1
q_553 0
q_554 1
q_555 1
q_556 0
q_557 0
q_558 0
q_559 0
q_560 1
q_561 0
q_562 1
q_563 1
q_564 1
q_565 1
q_566 1
q_567 0
q_568 0
q_569 1
q_570 1
q_571 1
q_572 1
q_573 1
q_574 1
q_575 1
q_576 1
q_577 1
q_578 1
q_579 1
q_580 1
q_581 1
q_582 1
q_583 1
q_584 1
q_585 1
q_586 1
q_587 1
q_588 1
q_589 1
q_590 1
q_591 1
q_592 1
q_593 1
q_594 1
q_595 1
q_596 1
q_597 1
q_598 1
q_599 1
q_600 1
q_601 1
q_602 1
q_603 1
q_604 0
q_605 1
q_606 1
q_607 1
q_608 1
q_609 1
q_610 0
q_611 0
q_612 0
q_613 1
q_614 1
q_615 1
q_616 1
q_617 1
q_618 0
q_619 1
q_620 0
q_621 1
q_622 1
q_623 1
q_624 1
q_625 1
q_626 1
q_627 1
q_628 1
q_629 1
q_630 1
q_631 1
q_632 1
q_633 1
q_634 1
q_635 1
q_636 1
q_637 1
q_638 1
q_639 1
q_640 1
q_641 1
q_642 1
q_643 1
q_644 1
q_645 1
q_646 1
q_647 1
q_648 1
q_649 1
q_650 1
q_651 1
q_652 1
q_653 1
q_654 1
q_655 1
q_656 1
q_657 1
q_658 1
q_659 1
q_660 1
q_661 1
q_662 1
q_663 1
q_664 1
q_665 1
q_666 1
q_667 1
q_668 1
q_669 1
q_670 1
q_671 1
q_672 1
q_673 1
q_674 1
q_675 1
q_676 1
q_677 1
q_678 1
q_679 1
q_680 1
q_681 1
q_682 1
q_683 1
q_684 1
q_685 1
q_686 1
q_687 1
q_688 1
q_689 1
q_690 1
q_691 1
q_692 1
q_693 1
q_694 1
q_695 1
q_696 0
q_697 1
q_698 1
q_699 1
q_700 1
q_701 1
q_702 1
q_703 1
q_704 1
q_705 1
q_706 1
q_707 1
q_708 0
q_709 1
q_710 1
q_711 1
q_712 1
q_713 0
q_714 0
q_715 1
q_716 1
q_717 1
q_718 1
q_719 1
q_720 1
q_721 1
q_722 0
q_723 0
q_724 1
q_725 1
q_726 1
q_727 0
q_728 0
q_729 1
q_730 1
q_731 1
q_732 1
q_733 1
q_734 1
q_735 1
q_736 1
q_737 1
q_738 1
q_739 1
q_740 1
q_741 1
q_742 1
q_743 1
q_744 1
q_745 1
q_746 1
q_747 1
q_748 1
q_749 0
q_750 1
q_751 1
q_752 1
q_753 1
q_754 1
q_755 1
q_756 1
q_757 1
q_758 0
q_759 1
q_760 1
q_761 1
q_762 1
q_763 1
q_764 1
q_765 1
q_766 1
q_767 1
q_768 1
q_769 1
q_770 0
q_771 1
q_772 1
q_773 1
q_774 1
q_775 1
q_776 0
q_777 1
q_778 1
q_779 1
q_780 1
q_781 0
q_782 0
q_783 0
q_784 0
q_785 0
q_786 0
q_787 0
q_788 0
q_789 0
q_790 0
q_791 1
q_792 1
q_793 1
q_794 1
q_795 1
q_796 1
q_797 0
q_798 1
q_799 1
q_800 1
q_801 1
q_802 1
q_803 1
q_804 1
q_805 1
q_806 1
q_807 1
q_808 0
q_809 1
q_810 0
q_811 1
q_812 1
q_813 1
q_814 1
q_815 1
q_816 1
q_817 1
q_818 1
q_819 1
q_820 1
q_821 0
q_822 1
q_823 1
q_824 1
q_825 1
q_826 1
q_827 1
q_828 0
q_829 1
q_830 1
q_831 1
q_832 1
q_833 1
q_834 1
q_835 1
q_836 0
q_837 1
q_838 0
q_839 1
q_840 1
q_841 1
q_842 1
q_843 1
q_844 1
q_845 1
q_846 1
q_847 1
q_848 1
q_849 1
q_850 1
q_851 0
q_852 0
q_853 0
q_854 1
q_855 1
q_856 1
q_857 0
q_858 1
q_859 0
q_860 0
q_861 1
q_862 0
q_863 1
q_864 1
q_865 1
q_866 1
q_867 0
q_868 1
q_869 1
q_870 0
q_871 0
q_872 0
q_873 1
q_874 1
q_875 1
q_876 1
q_877 1
q_878 0
q_879 1
q_880 0
q_881 1
q_882 1
q_883 1
q_884 0
q_885 1
q_886 1
q_887 1
q_888 1
q_889 1
q_890 0
q_891 1
q_892 1
q_893 1
q_894 0
q_895 1
q_896 1
q_897 1
q_898 1
q_899 1
q_900 1
q_901 1
q_902 1
q_903 1
q_904 1
q_905 1
q_906 1
q_907 1
q_908 1
q_909 1
q_910 1
q_911 0
q_912 1
q_913 1
q_914 1
q_915 1
q_916 1
q_917 1
q_918 1
q_919 0
q_920 0
q_921 1
q_922 1
q_923 1
q_924 0
q_925 0
q_926 1
q_927 1
q_928 1
q_929 1
q_930 1
q_931 1
q_932 1
q_933 0
q_934 1
q_935 1
q_936 1
q_937 1
q_938 1
q_939 1
q_940 1
q_941 1
q_942 1
q_943 1
q_944 1
q_945 1
q_946 1
q_947 1
q_948 1
q_949 1
q_950 1
q_951 0
q_952 1
q_953 1
q_954 1
q_955 1
q_956 0
q_957 1
q_958 1
q_959 0
q_960 0
q_961 1
q_962 1
q_963 1
q_964 1
q_965 0
q_966 0
q_967 1
q_968 0
q_969 0
q_970 1
q_971 1
q_972 0
q_973 0
q_974 1
q_975 0
q_976 0
q_977 1
q_978 1
q_979 0
q_980 1
q_981 1
q_982 0
q_983 1
q_984 0
q_985 0
q_986 0
a[0] 0
a[1] 0
a[2] 1
a[3] 1
a[4] 0
a[5] 0
a[6] 1
a[7] 1
a[8] 1
a[9] 1
a[10] 1
a[11] 1
a[12] 0
a[13] 0
a[14] 0
a[15] 0
a[16] 1
a[17] 0
a[18] 0
a[19] 1
a[20] 0
a[21] 0
a[22] 0
a[23] 0
a[24] 1
a[25] 1
a[26] 1
a[27] 1
a[28] 1
a[29] 0
a[30] 0
a[31] 0
a[32] 1
a[33] 1
a[34] 0
a[35] 0
a[36] 1
a[37] 1
a[38] 0
a[39] 1
a[40] 1
a[41] 1
a[42] 1
a[43] 1
a[44] 0
a[45] 0
a[46] 1
a[47] 1
a[48] 1
a[49] 1
a[50] 1
a[51] 1
a[52] 0
a[53] 1
a[54] 0
a[55] 0
a[56] 0
a[57] 1
a[58] 1
a[59] 1
a[60] 0
a[61] 0
a[62] 0
a[63] 0
a[64] 1
a[65] 1
a[66] 0
a[67] 0
a[68] 1
a[69] 1
a[70] 0
a[71] 0
a[72] 1
a[73] 0
a[74] 1
a[75] 0
a[76] 0
a[77] 1
a[78] 1
a[79] 0
a[80] 0
a[81] 0
a[82] 1
a[83] 1
a[84] 1
a[85] 0
a[86] 1
a[87] 1
a[88] 1
a[89] 1
a[90] 1
a[91] 0
a[92] 1
a[93] 1
a[94] 1
a[95] 0
a[96] 0
a[97] 0
a[98] 1
a[99] 1
a[100] 1
a[101] 1
a[102] 1
a[103] 1
a[104] 0
a[105] 1
a[106] 1
a[107] 1
a[108] 0
a[109] 1
a[110] 0
a[111] 1
a[112] 1
a[113] 1
a[114] 1
a[115] 1
a[116] 0
a[117] 1
a[118] 1
a[119] 1
a[120] 0
a[121] 1
a[122] 1
a[123] 1
a[124] 1
a[125] 1
a[126] 1
a[127] 1
a[128] 1
a[129] 1
a[130] 1
a[131] 1
a[132] 1
